s td 12 39 50
b 1 1 2 3 4 5 6 7 8 10 11 12 13 14 15 16 17 19 22 23 24 25 26 27 28 30 31 32 35 36 37 39 40 41 42 44 46 47 49 50
b 2 1 2 3 4 5 7 8 10 11 13 15 16 17 19 22 23 24 25 26 27 28 29 30 31 32 35 36 39 40 41 42 44 46 47 49 50
b 3 1 4 5 7 8 10 11 15 16 17 19 22 24 25 26 27 29 30 31 32 35 36 39 40 41 42 43 44 46 47 49 50
b 4 4 5 7 8 9 10 11 17 19 22 24 25 29 31 32 35 36 40 41 42 43 46 47 49 50
b 5 1 2 3 5 6 7 8 10 11 12 13 14 15 16 17 19 23 24 25 26 27 28 30 31 32 34 35 36 37 39 40 41 42 44 46 47 49 50
b 6 1 2 3 5 6 7 8 10 11 12 13 14 15 16 17 19 23 24 25 26 27 28 31 32 34 35 36 37 40 41 42 44 45 46 47 49 50
b 7 1 2 3 5 6 7 8 10 11 12 13 14 15 16 17 19 20 23 24 26 27 28 31 32 34 35 36 37 40 41 44 45 46 47 49 50
b 8 2 3 5 6 7 8 10 11 12 13 14 15 16 17 18 19 20 23 24 26 27 28 31 34 35 36 40 41 44 47 49 50
b 9 2 3 7 10 11 12 14 16 17 18 19 21 23 26 27 28 31 34 41 44 47 49
b 10 1 2 3 10 11 13 14 19 25 26 27 28 31 34 35 37 41 42 44 45 48
b 11 1 2 3 4 5 6 7 8 10 11 12 13 15 16 17 19 22 23 24 25 26 27 28 30 31 32 35 36 37 38 40 41 42 46 47 49 50
b 12 1 2 4 5 6 7 8 10 11 12 15 22 24 26 27 28 31 32 33 35 36 37 38 40 41 49
1 2
1 5
1 11
2 3
3 4
5 6
6 7
6 10
7 8
8 9
11 12
